400
50 50
1 40 669
2 40 458
3 40 834
4 40 713
5 40 157
6 40 738
7 40 663
8 40 917
9 40 398
10 40 975
11 40 837
12 40 747
13 39 11
14 39 261
15 39 621
16 39 379
17 39 38
18 39 459
19 39 318
20 39 305
21 39 925
22 38 492
23 38 837
24 38 82
25 38 63
26 38 7
27 38 204
28 38 424
29 38 874
30 38 520
31 38 77
32 38 310
33 38 614
34 38 118
35 38 516
36 38 347
37 37 784
38 37 520
39 37 255
40 37 155
41 37 900
42 37 300
43 37 137
44 37 258
45 37 407
46 36 543
47 36 38
48 36 653
49 36 992
50 36 211
51 36 905
52 36 69
53 36 945
54 36 181
55 36 326
56 36 861
57 36 616
58 36 599
59 36 255
60 35 493
61 35 849
62 35 940
63 35 571
64 35 761
65 35 82
66 35 333
67 35 974
68 35 280
69 35 477
70 35 252
71 35 423
72 35 725
73 35 497
74 34 91
75 34 828
76 34 53
77 34 283
78 34 528
79 33 301
80 33 969
81 33 603
82 33 619
83 33 920
84 33 876
85 33 4
86 33 871
87 33 867
88 32 530
89 32 348
90 32 275
91 32 992
92 32 995
93 32 213
94 32 859
95 32 585
96 32 2
97 32 430
98 32 33
99 32 519
100 32 419
101 32 855
102 32 777
103 32 926
104 31 758
105 31 688
106 31 900
107 31 140
108 31 519
109 31 731
110 31 374
111 31 993
112 31 152
113 30 972
114 30 633
115 30 78
116 30 874
117 30 825
118 30 64
119 30 711
120 30 852
121 30 713
122 30 783
123 30 677
124 30 752
125 29 619
126 29 876
127 29 439
128 29 605
129 29 765
130 29 533
131 29 651
132 29 334
133 29 818
134 29 339
135 29 588
136 28 529
137 28 273
138 28 939
139 28 113
140 28 986
141 28 546
142 28 961
143 28 405
144 28 987
145 28 20
146 27 297
147 27 132
148 27 999
149 27 64
150 27 729
151 27 654
152 27 482
153 27 401
154 27 564
155 27 652
156 27 644
157 27 714
158 27 58
159 26 893
160 26 880
161 26 298
162 26 20
163 26 767
164 26 905
165 26 859
166 26 477
167 26 418
168 26 117
169 26 498
170 26 771
171 26 11
172 26 541
173 26 761
174 26 770
175 25 705
176 25 546
177 25 167
178 25 111
179 25 296
180 25 560
181 25 956
182 25 445
183 25 201
184 25 971
185 24 892
186 24 300
187 24 556
188 24 244
189 24 152
190 24 926
191 24 51
192 23 102
193 23 201
194 23 295
195 23 671
196 23 221
197 23 504
198 23 701
199 22 384
200 22 354
201 22 860
202 22 673
203 22 987
204 22 185
205 22 612
206 22 560
207 22 631
208 21 403
209 21 667
210 21 115
211 21 225
212 21 220
213 21 209
214 21 17
215 21 188
216 21 972
217 21 622
218 20 49
219 20 164
220 20 980
221 20 517
222 20 555
223 20 597
224 20 179
225 20 805
226 20 890
227 20 996
228 20 891
229 20 502
230 20 752
231 19 445
232 19 65
233 19 36
234 19 249
235 19 250
236 19 776
237 19 661
238 19 871
239 19 733
240 19 594
241 19 188
242 19 577
243 19 185
244 19 503
245 18 936
246 18 621
247 18 948
248 18 971
249 18 702
250 18 117
251 18 542
252 18 717
253 18 375
254 18 221
255 18 439
256 18 199
257 18 931
258 17 77
259 17 176
260 17 817
261 17 110
262 17 466
263 17 615
264 17 327
265 17 448
266 17 96
267 17 670
268 17 511
269 17 653
270 17 955
271 17 819
272 16 788
273 16 936
274 16 933
275 16 929
276 16 541
277 16 146
278 16 59
279 16 876
280 16 409
281 16 191
282 16 253
283 15 723
284 15 363
285 15 318
286 15 831
287 15 905
288 15 507
289 15 566
290 15 390
291 15 474
292 15 783
293 14 574
294 14 63
295 14 625
296 14 67
297 14 44
298 14 199
299 14 500
300 14 348
301 14 365
302 14 183
303 13 576
304 13 248
305 13 959
306 13 927
307 13 628
308 13 748
309 13 528
310 13 580
311 13 660
312 13 228
313 13 511
314 13 177
315 13 889
316 12 711
317 12 202
318 12 315
319 12 48
320 12 710
321 12 267
322 12 473
323 12 744
324 12 682
325 12 181
326 12 541
327 12 494
328 11 698
329 11 920
330 11 432
331 11 828
332 11 595
333 11 352
334 11 238
335 11 720
336 11 260
337 10 960
338 10 582
339 10 992
340 10 595
341 10 900
342 10 488
343 10 348
344 10 256
345 10 102
346 9 401
347 9 170
348 9 210
349 9 651
350 9 711
351 9 744
352 9 593
353 9 953
354 9 390
355 8 776
356 8 412
357 8 424
358 8 791
359 8 754
360 8 724
361 8 994
362 8 309
363 8 917
364 8 719
365 8 711
366 7 403
367 7 738
368 7 500
369 7 495
370 7 622
371 7 370
372 7 757
373 7 128
374 7 643
375 7 177
376 7 232
377 7 640
378 7 531
379 7 142
380 7 565
381 7 6
382 6 971
383 6 974
384 6 375
385 6 901
386 6 6
387 6 759
388 6 910
389 6 556
390 6 653
391 6 657
392 6 353
393 6 833
394 5 835
395 5 319
396 5 68
397 5 833
398 5 363
399 5 718
400 5 13
